Si                                      
   4.50000000000000     
     0.5575332432770923    0.0000000000000000    0.0000000000000000
    -0.0000000000000000    0.5575332432770922    0.0000000000000000
    -0.0000000000000000   -0.0000000000000000    0.5575332432770921
   Si
     1
Direct
  0.0000000000000000 -0.0000000000000000  0.0000000000000000
 
  0.00000000E+00  0.00000000E+00  0.00000000E+00
