Si
  5.500000
     0.500  0.500  0.000
     0.500  0.000  0.500
     0.000  0.500  0.500
   2
Direct
  0.000  0.000  0.000
  0.250  0.250  0.250