SYSTEM = DFT Virtual Orbitals for Silicon

ALGO = Exact
NBANDS = 64
LOPTICS = .TRUE.
CSHIFT = 0.1
NEDOS = 2000
LPEAD = .TRUE.
ISMEAR = 0
SIGMA = 0.05
EDIFF = 1E-8