Si                                      
   3.50000000000000     
     0.7199226757220266    0.0000000000000000   -0.0000000000000000
    -0.0000000000000000    0.7199226757220266   -0.0000000000000000
     0.0000000000000000    0.0000000000000000    0.7199226757220266
   Si
     1
Direct
 -0.0000000000000000 -0.0000000000000000 -0.0000000000000000
 
  0.00000000E+00  0.00000000E+00  0.00000000E+00
