ISMEAR =  0
SIGMA  =  0.05
EDIFF  = 1E-8
KSPACING = 0.05