SYSTEM = Silicon
ENCUT = 520
IBRION = 2
ISIF = 3
ISMEAR = 1
SIGMA = 0.1
KPOINTS = automatic
PREC = Accurate
EDIFF = 1E-6
NELM = 60