SYSTEM = Si DFT Virtual Orbitals
ENCUT = 500
PREC = Accurate
ISMEAR = 0
SIGMA = 0.1
IBRION = -1
NSW = 0
LDAU = .FALSE.
LORBIT = 11
NEDOS = 2000
KPOINTS = automaticKPOINTS = 5 5 5
LORBIT = 11
LORBIT = 11
NEDOS = 2000
LORBIT = 11
NEDOS = 2000
LORBIT = 11
NEDOS = 2000
