SYSTEM = Silicon
ENCUT = 520
PREC = Accurate
ISMEAR = 1
SIGMA = 0.1
IBRION = 2
ISIF = 3
NSW = 50
EDIFF = 1E-6
EDIFFG = -0.02
ALGO = Normal
LREAL = Auto
KSPACING = 0.2