Si                                      
   1.00000000000000     
     2.4577621334556952   -0.0000000000000000    0.0000000000000000
    -0.0000000000000000    2.4577621334556947    0.0000000000000000
    -0.0000000000000000   -0.0000000000000000    2.4577621334556947
   Si
     1
Direct
  0.0000000000000000  0.0000000000000000  0.0000000000000000
 
  0.00000000E+00  0.00000000E+00  0.00000000E+00
