SYSTEM = DFT Groundstate Calculation
ENCUT = 520
IBRION = 2
ISIF = 3
ISMEAR = 0
SIGMA = 0.05
EDIFF = 1E-8
KSPACING = 0.1
ALGO = Normal
LREAL = Auto