Si                                      
   5.43000000000000     
     0.5389500873802298    0.0000000000000000   -0.0000000000000000
     0.0000000000000000    0.5389500873802298    0.0000000000000000
     0.0000000000000000    0.0000000000000000    0.5389500873802298
   Si
     1
Direct
  0.0000000000000000  0.0000000000000000  0.0000000000000000
 
  0.00000000E+00  0.00000000E+00  0.00000000E+00
