Si
  5.43
     1.000  0.000  0.000
     0.000  1.000  0.000
     0.000  0.000  1.000
   1
Direct
  0.000  0.000  0.000