# Step 1: default PBE
ISMEAR =  0
SIGMA  =  0.05
GGA    = PE