SYSTEM = default
  ISTART = 1
  ICHARG = 1
  PREC = Accurate
  LREAL = .FALSE.
#  LCHARG = .FALSE.      # 保存电荷密度文件
#  LWAVE = .FALSE.       # 保存波函数文件

  NELM = 500          # 最大电子步
  NELMIN = 5
  EDIFF = 1E-6         # 能量收敛
  ALGO = Normal
  ENCUT = 500          # 能量截断，越大越精确，但也越费时
  GGA = PE            # 采用GGA-PBE泛函
  ISMEAR = 0
  SIGMA = 0.05

  NSW = 0            # 最大离子步
  EDIFFG = -0.01        # 力收敛
  IBRION = -1
  ISIF = 3
  POTIM = 0.5